NAME          Pinturas
ROWS
 N  R0      
 L  R1      
 L  R2      
 L  R3      
COLUMNS
    x1        R0        -5.000000000   R1        6.0000000000
    x1        R2        1.0000000000   R3        -1.000000000
    x2        R0        -4.000000000   R1        4.0000000000
    x2        R2        2.0000000000   R3        1.0000000000
RHS
    RHS       R1        24.000000000   R2        6.0000000000
    RHS       R3        1.0000000000
BOUNDS
 UP BND       x2        2.0000000000
ENDATA